1 of 1 MIP starts provided solutions.
MIP start 'm1' defined initial solution with objective 102133.0000.
Tried aggregator 1 time.
MIP Presolve eliminated 0 rows and 1 columns.
Reduced MIP has 60200 rows, 30400 columns, and 9210100 nonzeros.
Reduced MIP has 30000 binaries, 0 generals, 0 SOSs, and 0 indicators.
Presolve time = 4.90 sec. (2335.93 ticks)
Probing time = 0.24 sec. (96.82 ticks)
Tried aggregator 1 time.
Reduced MIP has 60200 rows, 30400 columns, and 9210100 nonzeros.
Reduced MIP has 30000 binaries, 0 generals, 0 SOSs, and 0 indicators.
Presolve time = 4.93 sec. (2336.06 ticks)
Probing time = 0.24 sec. (96.38 ticks)
Clique table members: 100.
MIP emphasis: balance optimality and feasibility.
MIP search method: dynamic search.
Parallel mode: none, using 1 thread.
Root relaxation solution time = 2.26 sec. (1000.66 ticks)

        Nodes                                         Cuts/
   Node  Left     Objective  IInf  Best Integer    Best Bound    ItCnt     Gap

*     0+    0                       102133.0000   102159.0000      843    0.03%
      0     0   102158.9430    36   102133.0000   102158.9430      843    0.03%
      0     0   102141.9912    12   102133.0000      Cuts: 39      884    0.01%

Implied bound cuts applied:  4
Flow cuts applied:  12
Mixed integer rounding cuts applied:  10
Gomory fractional cuts applied:  6

Root node processing (before b&c):
  Real time             =   27.36 sec. (13246.71 ticks)
Sequential b&c:
  Real time             =    0.00 sec. (0.00 ticks)
                          ------------
Total (root+branch&cut) =   27.36 sec. (13246.71 ticks)
